NAME: tsp30_26
COMMENT: 30-tsp problem (Padberg/Rinaldi)
TYPE: TSP
DIMENSION: 30
EDGE_WEIGHT_TYPE : EUC_2D
NODE_COORD_SECTION
1 21 16
2 9 7
3 32 35
4 30 18
5 25 24
6 5 14
7 26 31
8 9 1
9 37 15
10 23 40
11 15 9
12 13 18
13 24 30
14 2 35
15 15 33
16 35 7
17 39 21
18 31 19
19 10 16
20 37 7
21 29 2
22 15 6
23 33 24
24 13 26
25 24 7
26 12 14
27 37 5
28 35 30
29 11 31
30 34 39
